c WARNING: for repeatability, setting FPU to use double precision
d VARIABLES            204126       
d CONSTRAINTS          928498       
c ============================[ Problem Statistics ]=============================
c |                                                                             |
c |  Number of variables:        204126                                         |
c |  Number of clauses:          928498                                         |
c |  Parse time:                   0.15 s                                       |
c |                                                                             |
c ============================[ Search Statistics ]==============================
c | Conflicts |          ORIGINAL         |          LEARNT          | Progress |
c |           |    Vars  Clauses Literals |    Limit  Clauses Lit/Cl |          |
c ===============================================================================
c |       100 |  178953   856618  2071882 |   314093      100     20 | 12.332 % |
c |       250 |  178953   856618  2071882 |   345502      250     18 | 12.332 % |
c |       475 |  178953   856618  2071882 |   380052      475     15 | 12.332 % |
c |       812 |  178953   856618  2071882 |   418058      812     93 | 12.332 % |
c |      1318 |  178953   856618  2071882 |   459863     1318    112 | 12.332 % |
c |      2077 |  178953   856618  2071882 |   505850     2077    113 | 12.332 % |
c |      3216 |  178953   856618  2071882 |   556435     3216    123 | 12.332 % |
c |      4924 |  178953   856618  2071882 |   612078     4924    129 | 12.332 % |
c |      7486 |  178953   856618  2071882 |   673286     7486    149 | 12.332 % |
c |     11330 |  178953   856618  2071882 |   740615    11330    157 | 12.332 % |
c |     17096 |  178953   856618  2071882 |   814677    17096    176 | 12.332 % |
c |     25745 |  178953   856618  2071882 |   896144    25745    194 | 12.332 % |
c |     38719 |  178953   856618  2071882 |   985759    38719    213 | 12.332 % |
c ===============================================================================
c restarts              : 158
c conflicts             : 51464          (1753 /sec)
c decisions             : 320085         (0.00 % random) (10900 /sec)
c propagations          : 129061315      (4394948 /sec)
c conflict literals     : 10803388       (9.81 % deleted)
d RESTARTS             158
d FAILURES             51464        
d NODES                320085       
d BACKTRACKS           320085       
d PROPAGATIONS         129061315    
d NOGOODSIZE           209.92 
d MEMORY               138.00 
d TIME                 29.3658 

s SATISFIABLE
